n_machines = 10;
n_resources = 20;
n_jobs = 49;
horizon = 23661;
LB = 2712;
n_jobs_per_resource = [3, 2, 2, 1, 2, 4, 1, 1, 1, 3, 3, 1, 4, 1, 4, 2, 3, 3, 4, 4];
duration = [638, 664, 771, 70, 541, 493, 354, 716, 421, 893, 735, 337, 945, 184, 194, 950, 50, 966, 659, 861, 670, 429, 32, 20, 215, 5, 899, 232, 178, 736, 468, 149, 147, 173, 486, 155, 586, 947, 144, 205, 100, 874, 978, 20, 840, 758, 994, 744, 35]